150
[17,18,19,21,23,26,27,29,31,32,33,34,35,36,37,38,40,41,42,43,45,46,47,48,50,53,54,55,56,59,62,63,64,70,71,74,75,76,77,78,79,80,81,86,87,91,92,93,94,95,96,97,98,99,100,101,103,104,105,106,107,108,109,111,112,113,116,117,119,120]
[1,1,1,1,1,2,1,1,1,1,2,2,1,1,1,3,1,2,2,3,2,2,2,1,1,1,1,1,1,3,2,2,2,1,1,1,1,1,2,1,1,1,1,2,2,2,1,1,1,1,1,1,2,1,4,1,3,1,1,1,1,1,1,3,2,1,1,1,1,1]
